32      3       
17      16      21      
0       0       0       0       3       2       3       4       
1       0       2       0       1       10      
10      2       8       7       3       5       18      21      
8       3       1       1       3       12      14      15      
10      0       4       0       2       6       7       
4       7       0       4       3       8       11      16      
10      1       0       0       3       10      20      29      
8       0       0       8       1       9       
1       7       0       0       1       31      
2       0       0       10      1       17      
4       10      0       3       2       13      17      
9       9       1       0       2       19      26      
4       3       8       5       2       15      25      
5       6       10      0       2       24      28      
1       0       3       7       1       20      
10      0       0       8       1       23      
7       0       5       0       2       22      23      
1       0       7       8       1       24      
2       0       0       7       1       27      
5       0       4       1       1       23      
3       9       0       7       2       22      26      
7       7       0       0       1       28      
2       10      0       0       1       26      
1       0       8       0       1       29      
6       0       0       2       1       28      
4       5       0       0       1       30      
1       0       0       9       1       29      
9       0       10      4       1       30      
5       7       0       0       1       32      
1       1       0       0       1       32      
1       9       1       0       1       32      
0       0       0       0       0       